\* MDP *\
Minimize
OBJ: 0000000 + 0000001 + 0000002 + 0000003 + 0000004 + 0000005 + 0000006
Subject To
_C1: 0000000 >= 0
_C10: 0000004 - 0000005 >= 0
_C11: - 0000004 + 0000005 >= 0
_C12: 0000005 - 0000006 >= 1
_C13: 0000006 >= 0
_C14: 0000006 >= 0
_C2: 0000000 >= 0
_C3: - 0000000 + 0000001 >= 0
_C4: 0000001 - 0000002 >= 0
_C5: - 0000001 + 0000002 >= 0
_C6: 0000002 - 0000003 >= 0
_C7: - 0000002 + 0000003 >= 0
_C8: 0000003 - 0000004 >= 0
_C9: - 0000003 + 0000004 >= 0
Bounds
 0000000 free
 0000001 free
 0000002 free
 0000003 free
 0000004 free
 0000005 free
 0000006 free
End
